
 102   30
  10   10   10   10   10   10   10   10   10   10   10   10   10   10   10   10   10   10   10   10   10   10   10   10   10   10   10   10   10   10

   0   0   0   0   0   0   0   0   0   0   0   0   0   0   0   0   0   0   0   0   0   0   0   0   0   0   0   0   0   0   0  26 2 3 4 5 6 7 8 9 10 11 12 13 14 16 17 18 20 21 22 25 26 27 28 30 43 46 
   7   0   0   0   0   0   0   0   1   0   0   0   0   0   0   0   0   1   0   0   0   0   0   0   0   0   0   0   0   0   0  22 101 100 73 72 71 70 69 66 65 64 60 57 55 50 49 48 44 41 40 39 36 34 
   2   0   0   1   1   0   0   0   0   0   0   0   0   0   0   1   0   2   0   0   0   0   0   1   0   0   0   0   0   1   0  14 70 65 61 57 55 54 52 49 48 45 44 40 36 19 
   9   0   0   0   0   0   0   0   0   0   0   0   3   0   2   0   0   0   0   0   0   0   3   0   0   0   1   0   1   0   0  14 72 70 61 59 53 48 40 39 38 37 36 34 24 23 
   4   0   0   0   0   0   0   0   0   0   1   0   0   0   0   0   1   0   1   0   0   0   0   0   0   0   0   1   0   0   0  19 99 71 70 64 61 59 57 55 54 52 50 49 48 41 40 39 38 37 29 
   2   0   0   7   0   0   0   0   0   1   0   0   0   0   0   9   0   0   7   1   0   0   0   0   0   0   0   5   0   0   0  20 101 100 99 98 73 71 70 69 63 59 57 48 47 39 38 36 35 33 32 31 
  10   0   0   0   4   1   0   0   0   0   0   1   0   0   0   0   0   0   0   9   0   0   0   0   0   0   0   0   0   0   0  18 97 73 72 71 70 69 67 65 64 59 57 52 49 47 42 40 39 36 
   2   0   0   0   8   5   1   0   0   0   0   6   0   0   4   0   0   0   5   0   0   0   0   0   0   0   0   0   0   0   0  22 101 99 97 96 92 72 70 69 67 64 63 61 60 59 55 54 52 49 47 41 38 36 
   5   0   0   0   0   0   0   0   7   0   7   0   0   0   0   0   0   3   0   0   3   0   3   0   0   1   0   0   0   0   0   8 97 59 53 49 47 40 37 15 
   7   1   0   0   7   0   0   0   0   0   0   0   0   0   0   0   0   0   0   0   0   0   7   0   0   9   0   0   0   0   2  18 101 99 96 73 72 67 64 59 57 56 54 49 48 47 45 39 37 29 
   5   0   0   0   0   0   0   0   8   0   7   0   0   0   0   0   0   0   0   8   4   0   0   0   0   0   3   0   0   0   0  16 99 97 94 72 71 67 64 56 55 49 42 39 38 37 35 29 
   6   0   0   0   0   0   0   0   0   0   0   4   0   0   0   5   0   0   5   0   0   0   5   0   0   0   0   0   0   0   0  17 101 97 96 94 91 71 69 64 62 60 59 57 50 45 44 39 36 
   9   0   0   0   0   0   0   0   0   0   0   0   0   0   0   0   0   0   0   0   6   0   0   0   0   0   0   0   0   0   0  11 70 69 64 61 59 50 49 47 40 36 31 
   9   0   0   6   0   0   0   0   0   0   0   6   0   0   0   4   0   0   5   0   0   0   4   0   0   0   0   0   0   0   0  17 101 98 97 95 93 92 89 83 72 71 70 69 64 62 50 44 40 
   3   5   3   0   0   8   0   1   0   0   0   0   0   0   0   0   0   0   0   0   0   0   0   0   0   0   0   0   0   0   0  16 101 99 98 93 92 91 86 70 69 67 64 63 60 54 52 38 
  10   0   0   0   0   0   0   6   0   0   0   0   0   0   0   0   0   9   0   6  10   0   0   0   0   0   0   0   0   0   0  16 99 98 97 96 94 92 70 68 67 64 63 58 56 54 41 36 
   6   0   0   0   0   0   0   6   8   0   0   0   0   2   0   0   0   0   0   0   0   0   0   0   0   0   0   0   0   0   0  19 99 98 97 95 94 93 92 89 88 73 71 70 68 62 58 57 56 53 45 
   3   0   0   8   0   0   0   0   0   0   0   0   0   0   0   0   0   8   0   0   0   0   0   0   0   0   0   0   0   0   0  17 101 99 98 97 96 95 92 90 87 71 67 63 57 56 55 47 36 
   5   0   0   0   0   0   0   0   0   0   0   0   0   0   0   0   0   0   0   0   0   0   0   0   1   0   0  10   0   4   0  13 100 98 97 94 93 72 71 69 64 63 39 38 37 
   3   0   4   0   0   0   0   0   0   0   0   2   0   2   0   0   0   7   0   0   0   0   0   0   0   0   3   0   0   0   0  13 101 100 98 96 94 92 72 58 56 53 50 38 36 
   1  10   0   0   0   0   0   0   5   0   0   0   0   0   0   0   0   0   0   0   0   2   0   0   0   0   9   0   0   0   4  15 100 96 95 94 71 67 66 65 64 62 61 60 56 45 36 
   6   9   0   0   5   0   0   0   0   0   0   0   0   0   0   0   0   0   0   5   0   0   0   0   0   0   0   0   0   0   0   9 94 91 71 64 57 53 50 39 38 
   2   0   4   0   0   0   0   0   0   0   0   0   0   6   4   0   0   0   0   0   0   4   6   0   0   0   0   0   0   0   0  13 101 97 96 95 93 92 87 69 62 57 52 47 45 
   6   0   6   5   0   0   0   0   0   7   0   0   0   0   0   0   5   6   9   0   0   0   0   0   0   0   0   0   0   0   7  15 96 94 92 91 89 84 69 68 67 64 63 62 60 57 47 
   1   5   3   6   0   0   0   0   0   0   0   0   7   0   7   0   0   0   0   0   0   0   0   0   0   0   0   0   0   0   0  11 97 95 70 63 62 58 57 56 53 41 36 
   6   0   0   6   7   0   0   0   0   0   0   0   9   0   8   0   0   0   0   0   0   7   6   0   0   0   0   0   0   0   0  15 100 96 94 93 92 88 85 82 67 64 63 62 61 58 41 
   4   0   0   0  10   0   0   0   0   0   0   0  10   0   0   9   0   0   0   0   0   2   0   0   0   0   0   0   0   0  10  14 101 96 93 92 91 89 88 69 63 59 58 57 53 52 
   3   0   0   0   0   7   7   0   7   0   0   0   0   0   0   0   0   0   0   0   0   0   5   0   5   0   0   0   0   0   0   7 97 95 92 72 58 53 36 
   9   0   0   0   0   0   0   0   0   0   0   0   0   0   0   0   0   8   0   0   0  10   0   0   0  10   0   0   8   0   0  17 100 93 92 89 88 87 85 84 83 81 80 79 75 69 68 63 58 
  10   6   0   0   0   0   0   5   0   5   0   0   0   0   0   0   0   0   0   0   0   0   0   0   0   0   0   0   0   0   0  16 101 97 92 89 86 84 83 80 78 76 75 70 69 67 62 60 
   5   0   0   0   0   4   0   0   0   3   0   0   0   0   0   0   0   0   7   0   0   0   0   5   0   0   0   0   0   0  10  10 95 94 92 88 87 80 68 62 56 51 
  10   0   0   0   0   0   0   0   0   3   0   0   0   0   0   0   5   0   0   0   0   0   0   0   0   0   0   5   0   0   0  11 95 93 89 88 80 76 68 67 64 58 51 
  10   7   0   0   5   0   0   8   5   8   0   0   3   0   0   0   0   0   0   0   6   0   0   0   0   0   7   0   0   0   0   9 97 90 87 80 76 67 62 58 51 
   5   0   0   0   0   0   0   8   0   0   0   0   6   0   0   0   0   0   0   0   0   0   5   0   0   0   0   0   7   0   0  15 99 98 97 94 91 86 84 83 82 81 80 78 77 75 62 
  10   0   8   0   0   0   0   0   0   0   0   0   6   0   0   0   0   0   0   5   0   0   7   0   0   3   0   0   8   0   0  15 96 95 89 88 86 85 84 83 81 80 78 77 76 74 68 
   8   0   0   0   0   0   0   0   0   0   6  10   0   0   0   2   0   0   0   0   0   0   6   0   0   0   0   0   0   0   0   9 93 89 88 86 82 81 80 79 51 
   5   0   0   0   0   0   0   0   8   0   0   0   0   0   0  10   0   0   0   0   0   0   0   5   6   0   0   0   6   0   4   9 95 92 91 90 89 86 81 74 51 
   8   0   0   0   0   0   0   0   0   8   0   2   0   0   0   0   0   0   0   0   6   0   0   0   0   0   0   0   0   9   0   6 89 81 80 68 62 51 
   3   0   0   0   0   0   5   0   0   0   0   0   0   0   0   0   0   0   0   0   0   0   0   5  10   0   0   0   0   0   0  10 95 92 88 87 85 83 76 75 68 58 
   6   0   0   0   0   6   0   0   0   0   0   0   0   0   0   0   0   0   0   8   0   0   0   0   0   0   0   0   5   0   0  10 96 94 88 87 84 82 79 75 63 56 
   2   7   0   0   0   0   0   0   0   0   0   0   0   0   0   0   0   0   0   0   0   0   0   0   0   0   7   0   0   0   0  12 91 90 89 87 84 83 81 80 79 76 75 74 
   7   0   0   5   0   0   6   0   0   0   0   0   0   7   6   0   0   8   0   0   0   0   0   0   0   0   0  10   0   9   5  10 101 100 96 91 89 88 83 80 75 62 
   6   0   0   0   0   0   0   0   0   0   0   5   0   0   0   0   0   0   0   0   0   2   0   0   0   0   0   0   0   0   0   8 86 81 80 75 71 68 67 63 
   4   0   0   0   0   0   0   0   0   0   0   0   0   0   0   0   0   0   0   0   5   0   3   0   0   0   0   0   0   0   0  10 99 90 87 85 80 79 78 76 74 67 
   9   0   0   8   6   0   0   0   0   0   7   0   2   0   0   0   0   0   0   0   0   0   0   0   0   2   0   0   0   0   0   3 79 63 51 
   6   0   0   0   0   0   0   0   0   0   0   9   0   7   0   0   0   0   0   0   0   0   0   0   0   0   0   0   0   0   0   8 99 96 91 87 85 82 81 62 
   5   0   0   0   0   0   0   0   0   0   0   0   0   0   0   0   0   0   9   0   0   0   0   0   0   0   0   0   0   0   0   7 88 83 80 79 76 75 58 
   2   0   0   0   0   0   0   0   0   0   0   0   0   6   7   0   9   3   0   0   0   0   0   5   0   0   0   5   0   0   0   7 97 94 84 77 76 75 58 
   9   0   0   0   0   0   0   0   0   0   0   0   0   0   0   0   0   0   0   0   0   6  10   0   0   0   0   0   0   0   0   8 98 93 88 85 80 78 76 74 
  10   0   0   0   0   0   0   0   0   0  10  10   0   0   0   8   0   0   0   0   0   0   0   0   6   0   0   0   8   0   0   6 86 82 81 80 79 67 
   5   0   0   7   0   0   0   0   0   7   0   0   0   0   7   0   0   0   0   0   0   0   0   0   6   0   0   0   0   0   4   6 85 84 83 78 77 75 
   1   0   0   0   0   0   0   0   0   0   0   5   0   0   0   0   0   0   0   0   0   0   7   0   0   0   0   0   7   0   0   6 94 90 82 81 79 74 
   1   6   0   0   0   7   0   0   4   0   0   0   0   0   0   0   0   0   0   0   0   0   0   0   5   0   8   0   0   0   0   6 90 87 83 82 76 75 
   6   0   0   0   5   0   0   0   0   6   8   0   0   0   0   0   0   0   0   0   0   0   0   0   0   0   0   3   0   0   0   6 100 95 88 77 76 74 
   3   0   0   0   8   0   4   0   0   0   0   0   0   0   0   0   0   0   0   0   0   0   0   0   0   0   0   0   0   0   0   3 81 77 62 
   6   3  10   6   0   0   0   0   0   0   0   0   0   0   0   0   0   0   0   0   0   0   0   4   0   0   0   0   0   5   0   4 91 81 76 74 
   5   0   0   6   0   0   0   0   0   0   0   0   0   7   0   0   0   0   0   0   4   0   0   0   0   0   0   0   0   0   0   4 85 82 80 74 
   7   0   0   0   0   0   0   0   0   0   3   0   0   0   0   5   0   0   0   8   0   0   0   0   0   0   0   0   0   0   0   3 86 78 74 
   2   0   0   0   0   0   0   0   0   0   0   0   0   0   0   0   0   5   0   7   0   5   0   0   0   0   0   0   0   0   0   3 82 75 74 
   6   0   0   0   7   0   9   0   0   0   0   0   0   0   0   0   0   0   0   0   0  10   0   0   0   0   0   0   0   0   0   3 87 81 74 
   5   0   0   0   0   0   0   0   0   0   0   0   0   0   0   0   0   0   0   0   0   0   0   0   0   0   0   0   0   0   0   3 84 77 75 
   2   5   0   5   0   0   0   9   0   0   0   7   0   0  10   7   7   0   0   0   0   0   0   0  10   0   0   0   0   0   0   2 79 74 
   3   0   0   0   0   0   0   0   0   0   0   0   6   0   0   0   0   0   4   0   0   0   0   0   0   0   0   0   0   0   0   2 76 74 
   2   0   0   0   0   0   0   0   6   0   0   0   0   0   0   0   9   4   0   0   0   0   0   0   7   0   0   0   7   0   0   2 75 74 
   9   5   0   8   3   0   0   0   0   0   0   0   0   0   5   0   0   0   0   0   0   0   0   0   0   0   0   0   0   0   0   2 93 87 
   2   0   9   0   8   0   0   0   0   0   0   0   7   0   0   0   0   0   0   0   0   0   0   0   0   0   6   0   0   0   0   2 77 74 
   9   0   0   0   0   0   0   0   0   0   0   0   0   0   0   0   0   0   0   0   0   0   0   0   0   0   0   0   0   0   4   1 77 
   8   0   0   0   5   0   0   0   0   0   0   0   6   0   6   0   0   0   0   0   0   0   0   0   0   0   5   0   0   0   9   1 82 
   8   0   0   0   0   0   7   0   0   0   0   0   0   0   0   0   0   8  10   0   0   0   8   0   6   0   0   0   0   0   5   1 90 
   9   0   0   0   0   0   0   0   0   0   0   0   0   0   0   0   0   0   0   0   0   7   0   0   6   0   0   0   0   0   0   1 87 
   6   0   0   0   0   0   0   0   0   5   0   0   0   0   0   0   0   0   0   0   0   0   0   0   0   0   0   0   0   0   0   1 76 
   5   0   0   0   0   0   8  10   0   0   0   0   6   0   0   0   0   0   0   0   0   0   0   0   0   0   0   0   0   0   0   1 88 
   2   0   0   0   0   0   0   0   9   0   0   8   0   0   0   0   0   0   5   0   0   0   0   0   0   0   0  10   0   0   0   1 78 
   9   0   0   0   0   0   0   0   0   0   0   0   8   0   0   7   0   0   0   0   0   0   0   0   0  10   0   0   0   0   0   1 102
   7   0   0   0   0   9   0   0   0   8   0   0   0   0   0   0   0   0   0   0   0   0   0   0   0   0   0   0   0   0   8   1 102
   7   0   0   4   0   0   5   0   0   0   0   0   0   0   0   0   0   0   0   0   0   0   8   0   0   0   0   0   0   0   0   1 102
   9   0   0   0   0   0   0   0   0   0   0   0   0   0   0   3   0   4   6   0   0   8   0   0   0   0   0   0   5   0   0   1 102
   8   0   0   0   0   0   0   0   0   0   0   0   0   7   0   0   0   0   0   0   0   0   0   0   0  10   0   0   0   6   0   1 102
   8   0   0   0   0   0   0   0   0   7   0   7   3   0   0   0   0   0   0   0   0   0   0   0   0   0   0   6   5   0   0   1 102
   3   0   0   0   0   0   0   0   0   0   0   0   0   0   2   0   0   0   0   0   0   0   5   0   0   0   0   0   0   0   0   1 102
   4   0   0   0   0   0   0   0   0   0   0   8  10   0   0   0   0   0   0   0   0   0   0   0   0   0   0   0   0   0   0   1 102
   1   3   0   0   7   0   0   0   0   0   0   0   0   6   0   8   0   8   0   0   4   0   0   8   0   0   0   0   0   0   0   1 102
   1   0   0   0   0   0   0   0   0   0   0   0   0   0   6   0   0   4   0   0   0   7   0   0   0   3   0   0   0   5   0   1 102
   8   0   0   0   0   0   0   5   0   0   5   0   0   0  10   0   0   0   0   0   0   0   0   0   0   0   0   0   0   0   0   1 102
   9   0   0   0   0   0   0   0   0   0   8   0   0   0   0   0   0   4   0   0   0   0   0   0   0   0   0   0   0   0   0   1 102
   9   0   0   0   0   0   0   0   0   0   4   0   0   0   0   7   0   0   3   0   0   0   0  10   0   0   0   0   0   0   0   1 102
   7   9   0   0   6   0   0   7   0   0   0   0   0   0   0   0   0   0   0   0   9   0   0   8   0   0   0   0   0   0   0   1 102
   6   0   0   0   0   0   0   0   0   0   0   0   0   0   0   8   0   0   0   0   0   0   0   0   0   0   0   0   5   0   0   1 102
   9   6   0   0   0   0   8   0   0  10   0   0   7  10   0   0   0  10   0   8   0   0   0   0   0   0   0   0   0   0   0   1 102
   4   0   0   0   0   0   0   0   0   0   0   0   0   0   0   0   0   9   0   4   0   0   0   0   0   0   0   0   0   0   0   1 102
   7   0   0   0   0   0   0   0   0   0   0   0   0   0   0   4   0   0   0   0   6   0   6   0   0   0   0   0   0   0   0   1 102
   7   0   0   7   4   0   0   0   6   0   0   0   0   0   0   0   0   0   0   0   0   7   0   9   0   0   0   0   0   0   0   1 102
   4   0   0   0   0   0   0   3   0   0   0   0   0   0   0   0   0   0   0   0   0   0   0   0   0   0   0   0   0   0   0   1 102
   1   0   0   0   0   7   0   0   0   0   0   6   0   0   0   0   0   0   0   0   0   0   0   0   6   0   7   0   0   0   0   1 102
   6   0   0   0   0   0   0   0   0   0   0   0   0   0   0   0   0   0   8   0   0   0   6   0   0   0   0   0   0   0   0   1 102
   5   0   0   0   0   0   0   0   0   0   0   0   0   0   0   3   0   9   0   0   0   0   0   0   0   0   0   0   0   0   0   1 102
   8   0   7   0   0   0   0   6   4   0   0   0   3   0   0   9   0   0   0   3   9   0   0   0   0   0   0   5   0   0   0   1 102
   5   0   0   0   0   0   0   4   0   0   0   0   0   0   6   0   0   0   0   0   0   0  10   0   0   0   0   0   0   0   0   1 102
   3   9   0   0   0   0   0   0   0   0   0   0   0   0   0   5   0   0   0   0   0   0   0   0   4   0   0   0   0   0   0   1 102
   5   0   0   0   0   0   0   0   6   0   0   0   0   0   0   0   0   0   0   0   0   7   0   0   0   0  10   0   0   9   0   1 102
   9   0   0   7   8   0   0   0   0   0   0   0   0   0   0   0   0   0   0   0   0   0   0   0   0   0   0   0   0   0   0   1 102
   0   0   0   0   0   0   0   0   0   0   0   0   0   0   0   0   0   0   0   0   0   0   0   0   0   0   0   0   0   0   0   0 
